(declare-fun temp11074_1 () (_ BitVec 64))
(declare-fun ARGNAME_batch_first_NAMEEND () (_ BitVec 64))
(declare-fun temp11074_2 () (_ BitVec 64))
(declare-fun var133297 () (_ BitVec 64))
(declare-fun temp11074_3 () (_ BitVec 64))
(declare-fun var133298 () (_ BitVec 64))
(declare-fun temp11074_4 () (_ BitVec 64))
(declare-fun var198842 () (_ BitVec 64))
(declare-fun var269219 () (_ BitVec 64))
(declare-fun var334784 () (_ BitVec 64))
(declare-fun var465925 () (_ BitVec 64))
(declare-fun temp11074_6 () (_ BitVec 64))
(declare-fun temp11074_5 () (_ BitVec 64))
(declare-fun temp11074_7 () (_ BitVec 64))
(declare-fun var1055567 () (_ BitVec 64))
(declare-fun var1121114 () (_ BitVec 64))
(declare-fun var919803 () (_ BitVec 64))
(declare-fun temp11074_9 () (_ BitVec 64))
(declare-fun temp11074_8 () (_ BitVec 64))
(declare-fun temp11074_11 () (_ BitVec 64))
(declare-fun temp11074_10 () (_ BitVec 64))
(declare-fun temp11074_12 () (_ BitVec 64))
(declare-fun var4852269 () (_ BitVec 64))
(declare-fun var4920113 () (_ BitVec 64))
(declare-fun var4920152 () (_ BitVec 64))
(declare-fun temp11074_14 () (_ BitVec 64))
(declare-fun temp11074_13 () (_ BitVec 64))
(declare-fun temp11074_16 () (_ BitVec 64))
(declare-fun temp11074_15 () (_ BitVec 64))
(declare-fun temp11074_18 () (_ BitVec 64))
(declare-fun temp11074_17 () (_ BitVec 64))
(declare-fun temp11074_19 () (_ BitVec 64))
(declare-fun var7936847 () (_ BitVec 64))
(declare-fun var8002394 () (_ BitVec 64))
(declare-fun var7801083 () (_ BitVec 64))
(declare-fun temp11074_20 () (_ BitVec 64))
(declare-fun var8522399 () (_ BitVec 64))
(declare-fun temp11074_21 () (_ BitVec 64))
(declare-fun var8522403 () (_ BitVec 64))
(declare-fun temp11074_22 () (_ BitVec 64))
(declare-fun var8522455 () (_ BitVec 64))
(declare-fun temp11074_23 () (_ BitVec 64))
(declare-fun temp11074_25 () (_ BitVec 64))
(declare-fun temp11074_24 () (_ BitVec 64))
(declare-fun temp11074_26 () (_ BitVec 64))
(declare-fun var9308831 () (_ BitVec 64))
(declare-fun temp11074_27 () (_ BitVec 64))
(declare-fun var9308835 () (_ BitVec 64))
(declare-fun temp11074_28 () (_ BitVec 64))
(declare-fun var9308887 () (_ BitVec 64))
(declare-fun temp11074_29 () (_ BitVec 64))
(declare-fun temp11074_30 () (_ BitVec 64))
(declare-fun var9963706 () (_ BitVec 64))
(declare-fun var10034083 () (_ BitVec 64))
(declare-fun var10099648 () (_ BitVec 64))
(declare-fun var10230789 () (_ BitVec 64))
(declare-fun temp11074_31 () (_ BitVec 64))
(declare-fun var67634 () (_ BitVec 64))
(declare-fun temp11074_32 () (_ BitVec 64))
(declare-fun var67635 () (_ BitVec 64))
(assert (= temp11074_1 #x0000000000000001))
(assert (= ARGNAME_batch_first_NAMEEND temp11074_1))
(assert (= temp11074_2 #x0000000000000000))
(assert (= var133297 temp11074_2))
(assert (= temp11074_3 #x0000000000000001))
(assert (= var133298 temp11074_3))
(assert (= temp11074_4 #x0000000000000000))
(assert (= var198842 temp11074_4))
(assert (= var269219 var198842))
(assert (= var334784 var269219))
(assert (= var465925 var334784))
(assert (= temp11074_6 #x0000000000000000))
(assert (= temp11074_5 temp11074_6))
(assert (= temp11074_7 #x0000000000000000))
(assert (= var1055567 temp11074_7))
(assert (= var1121114 var1055567))
(assert (= var919803 var1121114))
(assert (= temp11074_9 #xffffffffffffffff))
(assert (= temp11074_8 temp11074_9))
(assert (= temp11074_11 #xffffffffffffffff))
(assert (= temp11074_10 temp11074_11))
(assert (= temp11074_12 #x0000000000000002))
(assert (= var4852269 temp11074_12))
(assert (= var4920113 var4852269))
(assert (= var4920152 var4920113))
(assert (= temp11074_14 #xffffffffffffffff))
(assert (= temp11074_13 temp11074_14))
(assert (= temp11074_16 #x0000000000000000))
(assert (= temp11074_15 temp11074_16))
(assert (= temp11074_18 #x0000000000000000))
(assert (= temp11074_17 temp11074_18))
(assert (= temp11074_19 #x0000000000000000))
(assert (= var7936847 temp11074_19))
(assert (= var8002394 var7936847))
(assert (= var7801083 var8002394))
(assert (= temp11074_20 #x0000000000000000))
(assert (= var8522399 temp11074_20))
(assert (= temp11074_21 #x0000000000000001))
(assert (= var8522403 temp11074_21))
(assert (= temp11074_22 #x0000000000000000))
(assert (= var8522455 temp11074_22))
(assert (= temp11074_23 #x0000000000000000))
(assert (= var8522455 temp11074_23))
(assert (= temp11074_25 #x0000000000000000))
(assert (= temp11074_24 temp11074_25))
(assert (= temp11074_26 #x0000000000000001))
(assert (= var9308831 temp11074_26))
(assert (= temp11074_27 #x0000000000000001))
(assert (= var9308835 temp11074_27))
(assert (= temp11074_28 #x0000000000000000))
(assert (= var9308887 temp11074_28))
(assert (= temp11074_29 #x0000000000000000))
(assert (= var9308887 temp11074_29))
(assert (= temp11074_30 #x0000000000000000))
(assert (= var9963706 temp11074_30))
(assert (= var10034083 var9963706))
(assert (= var10099648 var10034083))
(assert (= var10230789 var10099648))
(assert (= temp11074_31 #x0000000000000000))
(assert (= var67634 temp11074_31))
(assert (= temp11074_32 #x0000000000000001))
(assert (= var67635 (bvadd var67634 temp11074_32)))
(model-add temp11074_1 () (_ BitVec 64) #x0000000000000001)
(model-add ARGNAME_batch_first_NAMEEND () (_ BitVec 64) #x0000000000000001)





